benchmarks_vrp/CMT1/fixed_c/CMT1_4.vrp
NAME: CMT1_4
TYPE: CVRP
COMMENT: 524.61 - Cluster Nr.4
DIMENSION: 6
CAPACITY: 160
EDGE_WEIGHT_TYPE: EUC_2D
NODE_COORD_TYPE: TWOD_COORDS
NODE_COORD_SECTION: 
2 49 49
3 58 48
5 52 41
6 56 37
1 30 40
4 62 42
DEPOT_SECTION: 
1
-1
DEMAND_SECTION: 
3 6
6 10
2 30
5 15
4 8
1 0
EOF
