benchmarks_vrp/CMT1/fixed_c/CMT1_4.tour
NAME: CMT1_4 solution
TYPE: TOUR
TOUR_SECTION:
1 2 3 4 6 5 -1
-1
EOF